proyfinal/src/viki/013/experimentInOfficeAgust.take6.output/e1c137f0-6c20-488d-8468-b3442acaa47b.als.out
Reading from standard input... Use '--help' for help.
============================[ Problem Statistics ]=============================
|                                                                             |
|  Number of variables:         87638                                         |
|  Number of clauses:          161767                                         |
|  Parse time:                   0.04 s                                       |
|                                                                             |
============================[ Search Statistics ]==============================
| Conflicts |          ORIGINAL         |          LEARNT          | Progress |
|           |    Vars  Clauses Literals |    Limit  Clauses Lit/Cl |          |
===============================================================================
|       100 |   63962   110782   276863 |    40620      100     10 | 27.016 % |
|       250 |   63962   110782   276863 |    44682      250     11 | 27.016 % |
|       475 |   53663    80709   202701 |    49150      464     25 | 38.767 % |
|       812 |   53572    80230   201514 |    54065      774     31 | 38.871 % |
|      1318 |   53120    78689   197675 |    59471     1243     42 | 39.387 % |
|      2077 |   53064    78465   197154 |    65419     1998     51 | 39.451 % |
|      3216 |   52994    78218   196510 |    71960     3129     57 | 39.531 % |
|      4924 |   52660    77331   194167 |    79157     4832     79 | 39.912 % |
|      7486 |   52335    76084   191140 |    87072     7346     79 | 40.283 % |
|     11330 |   52273    75816   190504 |    95779    11180     81 | 40.353 % |
|     17096 |   52203    75536   189839 |   105357    16939     83 | 40.433 % |
===============================================================================
restarts              : 83
conflicts             : 23031          (6844 /sec)
decisions             : 73547          (0.00 % random) (21855 /sec)
propagations          : 31067356       (9231944 /sec)
conflict literals     : 1874374        (44.63 % deleted)
Memory used           : 45.69 MB
CPU time              : 3.3652 s

UNSATISFIABLE
